0 0 0 0
0 1 2 0
0 2 1 0
0 3 0 0
0 4 2 8
0 5 0 2
0 6 0 10
0 7 0 4
0 8 0 5
0 9 0 9
0 10 1 10
0 11 1 10
0 12 0 16
0 13 0 9
0 14 0 8
0 15 0 21
0 16 1 16
0 17 0 19
0 18 0 11
0 19 0 19
0 20 0 20
0 21 0 21
0 22 0 23
0 23 0 11
0 24 0 21
0 25 1 26
0 26 0 22
0 27 1 16
0 28 0 28
0 29 0 23
0 30 0 23
0 31 0 30
